POSCAR
3.943
  0.00000000  0.00000000  3.00000000
  3.00000000  0.00000000  0.00000000
  0.00000000  3.00000000  0.00000000
  Fe  Mn  Co  Cr  Ni
  21  22  22  22  21
Direct
  0.0027472151199657  0.4950204502625651  0.5029779357998908
  0.1642391061558332  0.8375178194095744  0.6722180140543776
  0.3352452025022785  0.8371319558317679  0.4968391271457104
  0.8400490127402044  0.8261259188060177  0.0060348246051779
 -0.0038263219459668  0.1708565095714329  0.5017776132395700
  0.0027654319661658  0.4989997194553336  0.8370891712936873
  0.1652957423615601  0.0020490716833801  0.1646930454451981
  0.1635246742458352  0.1631051314995984  0.3344548807349461
  0.3338814380828936 -0.0023478811086757 -0.0009158203974695
 -0.0042439684415190  0.0042379166546788  0.6729687546466319
  0.1669225819878651  0.1695508225183215  0.6732797855935048
  0.3343258468406141  0.1664459716873355  0.4967139608507936
  0.3309056561057807  0.3339064627046535  0.6715266892407974
  0.5002483365286852  0.4986245066932992  0.6653449195458468
  0.6739420072031063  0.1685686896808749  0.1650063561385707
  0.8302041114224912  0.8392911170655538  0.6709685551725189
  0.3371206433125023  0.1668057339230671  0.8284054672507148
  0.6647139410043971  0.5018007543353574  0.8304407174611482
  0.8375550003124227  0.1665433430373206  0.3282218295739975
  0.8314611186175065  0.4966240124952882  0.6664344133995894
  0.4994026743253350  0.0080853566377944  0.8297619783419750
  0.1695047027751670  0.8391279771183852 -0.0074070011711181
  0.0015428297286027  0.3396898220004159  0.0043980009332331
  0.0040880845604196  0.4904343948652575  0.1625160590722798
  0.1597155702475977  0.5031731477551982  0.0022984927779881
 -0.0003060883250028  0.1675873977304233  0.1671943670718946
 -0.0057660632347969  0.8379901077836278  0.8318834410586958
  0.1673155590164143  0.3303438459531700  0.1707174125136671
  0.4909261036053809  0.8286496477169719  0.3351941179321988
  0.1698245592465938  0.3195210147028588  0.5005034626374317
  0.3291820382401898  0.3298122670993172  0.3352757265268461
  0.5107156508185919  0.8347606665196937  0.6738791015248086
  0.6539313574335548  0.3294547869782271 -0.0026515411261045
  0.6693672272004316  0.6689842751446207  0.3337874888753741
  0.3372045703127711  0.0022042158104171  0.3403484294888602
  0.4884348639408573  0.1717287669112865  0.3360023148404273
  0.6621240870990598  0.5000211327156021  0.5041439460059463
  0.6675586402028872  0.8309543285810129  0.8245087730805560
  0.8225458298104276  0.1711399177936355  0.0053981524012677
  0.1712894247761264 -0.0090329529886208  0.8317755213336504
  0.5072211764980926  0.3342920385914703  0.8232448120378576
  0.6677461054863911  0.3359299604086505  0.6715462225013203
  0.8334618931007860  0.6659396879993875  0.8295041241493464
 -0.0021507937776662  0.8370444765451412  0.5051455435912945
  0.3329393249777379  0.6659647137751353 -0.0019908968045427
  0.0044438277116793  0.3278295452881268  0.3360600452129337
 -0.0031439903542844  0.6662425785064199  0.6707486910802856
  0.5010647897245167  0.4995620362248201 -0.0083530831216421
  0.4972262376803799  0.6646877792128573  0.1746155279153186
  0.1679302472884198  0.6645756109552130  0.8315193058008098
  0.3326474464605641  0.6638515298456298  0.6663622542328784
  0.5010532088030212  0.3263278942363030  0.1707558364886820
  0.6642342969596846  0.4947655334849297  0.1652668206178416
  0.6702818259247719  0.8361766103723112  0.5037837622160829
  0.8351151718775056  0.4969187768639680 -0.0011860034800254
  0.1662717894641374  0.3364483516652745  0.8291945520971992
  0.6670433177588214  0.3323602411287121  0.3324575080068889
  0.3356039747476843 -0.0004665261142511  0.6718917984931446
  0.4986066244388441  0.1662475597115633  0.6717959942840674
  0.8346958591477782  0.0015352330918398  0.1658705629035580
  0.6659255539701667 -0.0039453365040960  0.6699259777802659
  0.6631104111320278  0.1676021199579597  0.8326855546570113
  0.8360266781810822 -0.0018953761622806  0.5031389764932312
  0.8378893265220005  0.1719018814161180  0.6670539598111312
  0.8357930548800353  0.0024724781277865  0.8336002867034069
  0.0006219814907492  0.6621002138212012 -0.0094863447810431
  0.0083822531066763  0.8384891390874959  0.1537204972302176
 -0.0117412951176516  0.6847379572067319  0.3304637927095566
  0.3318880192562048  0.8375504151880780  0.1610005089719134
 -0.0017793210936578  0.0022756873195696  0.0009406453373692
  0.1539540098950039  0.4958247805198520  0.3342179884805132
  0.3383653421658789  0.6776350118392451  0.3349324328004967
 -0.0009774530842038  0.0071688249984750  0.3346884719701289
  0.0026312759928444  0.3324642007705095  0.6673405899660313
  0.1626063578690332  0.5034618248668218  0.6570649538470625
  0.3366589301520471  0.5004118419192894  0.5063708074864445
  0.5051321610889777  0.1677549501130789 -0.0022757592381929
  0.5071807201561589  0.4972302842549017  0.3310026763257126
  0.8278126481945829  0.6600656498038835  0.1566473588852410
  0.8283631172893222  0.8287015133568616  0.3346757554238914
  0.0027997422763930  0.1582257917321296  0.8287388164868316
  0.3308904165469330  0.4976357129204800  0.8308375313142522
  0.5009155800043901  0.6586947062029587  0.8308313873169075
  0.6722814922950368  0.6644445450149690  0.6629245078414845
  0.8272249224309893  0.3326491163099955  0.1721605320015739
  0.8370613434516245  0.6630210487393700  0.5125387178319767
  0.8346020446978940  0.3321756459453168  0.4944319195883525
  0.1662259114485045  0.6669938115482396  0.1675220433967182
  0.1670489725286874  0.8377961481835198  0.3332120048958226
  0.4986863095136215  0.8338742283599007 -0.0037705697219968
  0.1686483545069169  0.1645668801485769 -0.0028684360267810
  0.1649525171626654  0.6709260543524898  0.4969442678025063
  0.3353489745952103  0.3330260716111184 -0.0017124608136141
  0.3339742302492579  0.5004844256354704  0.1682054116458635
  0.6655280074060995  0.6653711035267245 -0.0041745672236936
  0.6664381519821287  0.8328512411543574  0.1667039133032159
  0.3348598199337489  0.1650205964731906  0.1669278834181868
  0.3373802311769756  0.8328879131962842  0.8301494104687106
  0.5010414787351906  0.6701449276170836  0.5033348637682673
  0.1681436962825029  0.0010490902710883  0.5051941833241859
  0.4994209745357246  0.0040383773779424  0.1698957652725997
  0.4978104037475366  0.3307796183174366  0.5033870587809726
  0.6678853604670946  0.0002740806031207 -0.0028186993766876
  0.8340119891685207  0.5034529518952284  0.3336460110247104
  0.5009447493874037 -0.0034499463041581  0.5008480184467008
  0.6678078314762760  0.0025289887556604  0.3330835666204703
  0.6664536987236167  0.1670819734226284  0.4996695321750733
  0.8357982913996824  0.3297250602578531  0.8342063924386204
