K-Spacing Value to Generate K-Mesh: 0.020
0
Gamma
  5    5    5
0.0  0.0  0.0
