POSCAR
3.593
  0.00000000  0.00000000  3.00000000
  3.00000000  0.00000000  0.00000000
  0.00000000  3.00000000  0.00000000
  Fe  Mn  Co  Cr  Ni
  21  22  22  22  21
Direct
  0.0027809284567546  0.4949795760035793  0.5030851685183931
  0.1642144895159138  0.8375407584753785  0.6722215004429232
  0.3352666777320290  0.8371390295213651  0.4968412354066676
  0.8400063144090595  0.8261812845478572  0.0059691691501432
 -0.0038429787174716  0.1709073325734248  0.5017037563214464
  0.0027293642648802  0.4990042019294409  0.8371123601090634
  0.1653580697158669  0.0020148821470742  0.1647051461007776
  0.1635194826818631  0.1631248436837747  0.3343745957409435
  0.3338073932441359 -0.0023765827948139 -0.0009027700032043
 -0.0042720160309664  0.0042046535291334  0.6729877420438524
  0.1669156308353247  0.1695653661035318  0.6732848206632596
  0.3343633851762022  0.1664891340097648  0.4968421550086515
  0.3308908125656414  0.3338370706562186  0.6714556032965805
  0.5002118993032788  0.4986511814959517  0.6653756976305302
  0.6738491364139476  0.1685308963642478  0.1650212946663833
  0.8301415263449839  0.8393122092555995  0.6709686311649049
  0.3371029792179987  0.1667421835674600  0.8284058207230895
  0.6646927671395595  0.5017248130160281  0.8304140594238337
  0.8375618891517310  0.1665487512285920  0.3281987530369426
  0.8314506532383200  0.4966344447746624  0.6663228955259289
  0.4994475968182838  0.0081032266147973  0.8298133859156127
  0.1694731142490872  0.8390954753687758 -0.0074375752497026
  0.0016124848391139  0.3397128950495365  0.0043999454897202
  0.0041052742653477  0.4904808783988351  0.1624715965802752
  0.1596727995825997  0.5032149676208219  0.0023099018821322
 -0.0003018775663432  0.1676075696814181  0.1672205056671153
 -0.0056526517128023  0.8380771122931379  0.8319387393282210
  0.1673389353580715  0.3303474084626659  0.1708664187657234
  0.4908657066659758  0.8287554387728635  0.3351307394517190
  0.1698445632436246  0.3194189030206981  0.5004734730595947
  0.3292409175392056  0.3296335319079791  0.3351941463133992
  0.5106595423022123  0.8347549925827604  0.6738158392210991
  0.6539806452998370  0.3294509552572305 -0.0026456234359612
  0.6694055425842802  0.6688727393057630  0.3337764352612181
  0.3372634247632165  0.0021600233930106  0.3402505144974609
  0.4884148064734427  0.1717052191652151  0.3359934890909264
  0.6621372946811402  0.5001468471039773  0.5040939435407099
  0.6675349089086452  0.8309707169410827  0.8244793167202440
  0.8224788948835835  0.1711389195776136  0.0054412171604319
  0.1714029295807235 -0.0088653687613175  0.8316752728604199
  0.5071098425767655  0.3342877996522410  0.8232695379145960
  0.6677102329305163  0.3359501692134564  0.6715605131123009
  0.8335154423278056  0.6659028953123012  0.8295517226250908
 -0.0020911309040135  0.8371404974234545  0.5051751551226105
  0.3329810094193612  0.6659989185999206 -0.0019812273030299
  0.0044805051921233  0.3277856469614260  0.3360733527662781
 -0.0031246408173747  0.6662658597565431  0.6707774682184491
  0.5010808971108981  0.4995708949769583 -0.0084073036871519
  0.4972042586687503  0.6647008399842838  0.1746819757760417
  0.1679075297721056  0.6645397952038562  0.8314939854683143
  0.3326287878748341  0.6638407362005213  0.6663499674745993
  0.5010896562085856  0.3263777171816170  0.1707744884967077
  0.6642038060535568  0.4947624347167365  0.1652664433305087
  0.6703046776377930  0.8361456731868919  0.5038132931612714
  0.8350760421469499  0.4968741006289497 -0.0011320420713262
  0.1663804229225436  0.3364352456596275  0.8292030609565317
  0.6670816601976115  0.3323544221544611  0.3324886974333273
  0.3356997283545067 -0.0005423571199789  0.6718613628669169
  0.4985934308782688  0.1662644718183069  0.6717824504676821
  0.8346715952933588  0.0015875348133348  0.1658417264039548
  0.6658923847074250 -0.0039569490117791  0.6699444061494840
  0.6630929736022253  0.1676737366363981  0.8326205881034137
  0.8360111832219630 -0.0018949264725720  0.5031708515313280
  0.8378988593656107  0.1718744057058384  0.6670670248570582
  0.8357684887724497  0.0024327141189531  0.8335811627350086
  0.0005500744638473  0.6621238288038530 -0.0094557797400911
  0.0083383214332535  0.8385073849245447  0.1537264289992753
 -0.0118578870781076  0.6847262118289251  0.3304436390895542
  0.3319515535159789  0.8375054299561889  0.1611183071632543
 -0.0017320938675432  0.0022393552425346  0.0009373450594764
  0.1538897500277485  0.4958769690802511  0.3342594791485535
  0.3382714485836268  0.6775896802504738  0.3349861679046499
 -0.0010320172605555  0.0070704623117694  0.3347291208970817
  0.0027850170977860  0.3322939781745092  0.6673716622169108
  0.1626809160792019  0.5034577427518481  0.6570281364598075
  0.3366080569425203  0.5004445223111976  0.5062219064881596
  0.5051835267636514  0.1677778042383756 -0.0023465718099925
  0.5071403422809115  0.4972881805217447  0.3310005093332856
  0.8277851945641852  0.6600359475345738  0.1566675440157204
  0.8284186448023967  0.8288238439015414  0.3346991310633023
  0.0026721849070073  0.1581883065002555  0.8288590226758212
  0.3308999122418079  0.4977334955421488  0.8309446604103149
  0.5009791019824095  0.6587739459173881  0.8307463261348108
  0.6723126056273183  0.6644012444632681  0.6628985774910141
  0.8271536606217098  0.3325938592647354  0.1720930214781802
  0.8371318556160988  0.6630791196435264  0.5125747962629218
  0.8346248146235212  0.3321729973257541  0.4945439390278420
  0.1662413469513652  0.6669826046573438  0.1675159607859114
  0.1670147194261482  0.8378124373379471  0.3332260363232466
  0.4986842166938961  0.8338686843332118 -0.0037473831979016
  0.1686515395662723  0.1645656374626149 -0.0028600495145111
  0.1649067828297692  0.6709740019963363  0.4969643835487157
  0.3353640646690925  0.3330317005251313 -0.0017074005821491
  0.3339507059219807  0.5004631155023306  0.1682285103656386
  0.6655260175200746  0.6654085135103077 -0.0041983330470876
  0.6664889042559330  0.8328407969457498  0.1667093316615574
  0.3349033637238299  0.1650061025165970  0.1668581064310322
  0.3373599203393212  0.8328812281999654  0.8301699203319631
  0.5010225528007524  0.6701641993458352  0.5033239920105440
  0.1681955625056451  0.0010511924890830  0.5051739949722637
  0.4994318699778399  0.0040339015335444  0.1698719924693471
  0.4977923829002048  0.3307975737416221  0.5033836511659683
  0.6678786492730158  0.0002729129954408 -0.0028293326819024
  0.8340367678434423  0.5034099166716927  0.3336586793909787
  0.5009410172678175 -0.0034795806638699  0.5008630051352934
  0.6677791930841018  0.0024809398936350  0.3330605604074809
  0.6664438675376706  0.1670727780977778  0.4996228120582747
  0.8357906700101350  0.3297462732714114  0.8341862131940478
