POSCAR                                  
   3.51800000000000     
     0.0000000000000000    0.0000000000000000    2.9999999999999996
     2.9999999999999996    0.0000000000000000    0.0000000000000000
     0.0000000000000000    2.9999999999999996    0.0000000000000000
   Fe   Mn   Co   Cr   Ni
    21    22    22    22    21
Direct
  0.0027472151199674  0.4950204502625652  0.5029779357998905
  0.1642391061558328  0.8375178194095767  0.6722180140543799
  0.3352452025022785  0.8371319558317651  0.4968391271457122
  0.8400490127402023  0.8261259188060208  0.0060348246051802
  0.9961736780540349  0.1708565095714363  0.5017776132395682
  0.0027654319661679  0.4989997194553339  0.8370891712936839
  0.1652957423615575  0.0020490716833805  0.1646930454451976
  0.1635246742458349  0.1631051314995986  0.3344548807349454
  0.3338814380828907  0.9976521188913239  0.9990841796025336
  0.9957560315584786  0.0042379166546809  0.6729687546466323
  0.1669225819878619  0.1695508225183247  0.6732797855935075
  0.3343258468406134  0.1664459716873381  0.4967139608507907
  0.3309056561057773  0.3339064627046540  0.6715266892407996
  0.5002483365286849  0.4986245066932966  0.6653449195458450
  0.6739420072031095  0.1685686896808747  0.1650063561385693
  0.8302041114224892  0.8392911170655566  0.6709685551725215
  0.3371206433125025  0.1668057339230700  0.8284054672507182
  0.6647139410044005  0.5018007543353562  0.8304407174611512
  0.8375550003124204  0.1665433430373184  0.3282218295739980
  0.8314611186175043  0.4966240124952890  0.6664344133995925
  0.4994026743253386  0.0080853566377925  0.8297619783419776
  0.1695047027751642  0.8391279771183875  0.9925929988288829
  0.0015428297285993  0.3396898220004161  0.0043980009332358
  0.0040880845604221  0.4904343948652610  0.1625160590722814
  0.1597155702475987  0.5031731477551986  0.0022984927779888
  0.9996939116749957  0.1675873977304221  0.1671943670718932
  0.9942339367652053  0.8379901077836251  0.8318834410586931
  0.1673155590164157  0.3303438459531733  0.1707174125136675
  0.4909261036053820  0.8286496477169720  0.3351941179321969
  0.1698245592465923  0.3195210147028575  0.5005034626374325
  0.3291820382401909  0.3298122670993138  0.3352757265268451
  0.5107156508185895  0.8347606665196921  0.6738791015248111
  0.6539313574335566  0.3294547869782249  0.9973484588738941
  0.6693672272004321  0.6689842751446236  0.3337874888753731
  0.3372045703127711  0.0022042158104156  0.3403484294888628
  0.4884348639408600  0.1717287669112864  0.3360023148404281
  0.6621240870990590  0.5000211327156023  0.5041439460059465
  0.6675586402028841  0.8309543285810150  0.8245087730805594
  0.8225458298104300  0.1711399177936386  0.0053981524012698
  0.1712894247761270  0.9909670470113809  0.8317755213336540
  0.5072211764980921  0.3342920385914709  0.8232448120378564
  0.6677461054863940  0.3359299604086488  0.6715462225013198
  0.8334618931007896  0.6659396879993906  0.8295041241493450
  0.9978492062223339  0.8370444765451381  0.5051455435912970
  0.3329393249777368  0.6659647137751321  0.9980091031954572
  0.0044438277116825  0.3278295452881252  0.3360600452129319
  0.9968560096457182  0.6662425785064201  0.6707486910802842
  0.5010647897245164  0.4995620362248232  0.9916469168783593
  0.4972262376803798  0.6646877792128549  0.1746155279153214
  0.1679302472884174  0.6645756109552110  0.8315193058008106
  0.3326474464605624  0.6638515298456298  0.6663622542328795
  0.5010532088030217  0.3263278942363002  0.1707558364886808
  0.6642342969596839  0.4947655334849301  0.1652668206178447
  0.6702818259247749  0.8361766103723127  0.5037837622160808
  0.8351151718775043  0.4969187768639713  0.9988139965199778
  0.1662717894641403  0.3364483516652754  0.8291945520971993
  0.6670433177588180  0.3323602411287112  0.3324575080068897
  0.3356039747476842  0.9995334738857480  0.6718917984931423
  0.4986066244388425  0.1662475597115645  0.6717959942840679
  0.8346958591477787  0.0015352330918432  0.1658705629035566
  0.6659255539701689  0.9960546634959044  0.6699259777802666
  0.6631104111320312  0.1676021199579623  0.8326855546570116
  0.8360266781810850  0.9981046238377189  0.5031389764932328
  0.8378893265220029  0.1719018814161188  0.6670539598111347
  0.8357930548800354  0.0024724781277854  0.8336002867034082
  0.0006219814907524  0.6621002138211978  0.9905136552189546
  0.0083822531066744  0.8384891390874927  0.1537204972302177
  0.9882587048823481  0.6847379572067354  0.3304637927095584
  0.3318880192562048  0.8375504151880762  0.1610005089719166
  0.9982206789063426  0.0022756873195675  0.0009406453373657
  0.1539540098950027  0.4958247805198539  0.3342179884805105
  0.3383653421658792  0.6776350118392429  0.3349324328004997
  0.9990225469157963  0.0071688249984732  0.3346884719701322
  0.0026312759928473  0.3324642007705094  0.6673405899660310
  0.1626063578690307  0.5034618248668252  0.6570649538470619
  0.3366589301520477  0.5004118419192878  0.5063708074864479
  0.5051321610889801  0.1677549501130784  0.9977242407618050
  0.5071807201561569  0.4972302842549041  0.3310026763257099
  0.8278126481945804  0.6600656498038830  0.1566473588852375
  0.8283631172893209  0.8287015133568616  0.3346757554238948
  0.0027997422763946  0.1582257917321286  0.8287388164868332
  0.3308904165469357  0.4976357129204771  0.8308375313142520
  0.5009155800043885  0.6586947062029580  0.8308313873169055
  0.6722814922950349  0.6644445450149661  0.6629245078414812
  0.8272249224309860  0.3326491163099945  0.1721605320015769
  0.8370613434516230  0.6630210487393668  0.5125387178319798
  0.8346020446978955  0.3321756459453198  0.4944319195883509
  0.1662259114485067  0.6669938115482381  0.1675220433967155
  0.1670489725286899  0.8377961481835214  0.3332120048958203
  0.4986863095136229  0.8338742283599032  0.9962294302780066
  0.1686483545069137  0.1645668801485769  0.9971315639732197
  0.1649525171626678  0.6709260543524920  0.4969442678025047
  0.3353489745952132  0.3330260716111155  0.9982875391863857
  0.3339742302492610  0.5004844256354701  0.1682054116458644
  0.6655280074061025  0.6653711035267236  0.9958254327763072
  0.6664381519821276  0.8328512411543585  0.1667039133032162
  0.3348598199337474  0.1650205964731910  0.1669278834181895
  0.3373802311769722  0.8328879131962807  0.8301494104687137
  0.5010414787351891  0.6701449276170806  0.5033348637682664
  0.1681436962825060  0.0010490902710885  0.5051941833241855
  0.4994209745357239  0.0040383773779453  0.1698957652725994
  0.4978104037475362  0.3307796183174361  0.5033870587809730
  0.6678853604670962  0.0002740806031198  0.9971813006233106
  0.8340119891685234  0.5034529518952269  0.3336460110247117
  0.5009447493874006  0.9965500536958416  0.5008480184467032
  0.6678078314762743  0.0025289887556639  0.3330835666204734
  0.6664536987236147  0.1670819734226257  0.4996695321750764
  0.8357982913996835  0.3297250602578501  0.8342063924386238
 
  0.00000000E+00  0.00000000E+00  0.00000000E+00
  0.00000000E+00  0.00000000E+00  0.00000000E+00
  0.00000000E+00  0.00000000E+00  0.00000000E+00
  0.00000000E+00  0.00000000E+00  0.00000000E+00
  0.00000000E+00  0.00000000E+00  0.00000000E+00
  0.00000000E+00  0.00000000E+00  0.00000000E+00
  0.00000000E+00  0.00000000E+00  0.00000000E+00
  0.00000000E+00  0.00000000E+00  0.00000000E+00
  0.00000000E+00  0.00000000E+00  0.00000000E+00
  0.00000000E+00  0.00000000E+00  0.00000000E+00
  0.00000000E+00  0.00000000E+00  0.00000000E+00
  0.00000000E+00  0.00000000E+00  0.00000000E+00
  0.00000000E+00  0.00000000E+00  0.00000000E+00
  0.00000000E+00  0.00000000E+00  0.00000000E+00
  0.00000000E+00  0.00000000E+00  0.00000000E+00
  0.00000000E+00  0.00000000E+00  0.00000000E+00
  0.00000000E+00  0.00000000E+00  0.00000000E+00
  0.00000000E+00  0.00000000E+00  0.00000000E+00
  0.00000000E+00  0.00000000E+00  0.00000000E+00
  0.00000000E+00  0.00000000E+00  0.00000000E+00
  0.00000000E+00  0.00000000E+00  0.00000000E+00
  0.00000000E+00  0.00000000E+00  0.00000000E+00
  0.00000000E+00  0.00000000E+00  0.00000000E+00
  0.00000000E+00  0.00000000E+00  0.00000000E+00
  0.00000000E+00  0.00000000E+00  0.00000000E+00
  0.00000000E+00  0.00000000E+00  0.00000000E+00
  0.00000000E+00  0.00000000E+00  0.00000000E+00
  0.00000000E+00  0.00000000E+00  0.00000000E+00
  0.00000000E+00  0.00000000E+00  0.00000000E+00
  0.00000000E+00  0.00000000E+00  0.00000000E+00
  0.00000000E+00  0.00000000E+00  0.00000000E+00
  0.00000000E+00  0.00000000E+00  0.00000000E+00
  0.00000000E+00  0.00000000E+00  0.00000000E+00
  0.00000000E+00  0.00000000E+00  0.00000000E+00
  0.00000000E+00  0.00000000E+00  0.00000000E+00
  0.00000000E+00  0.00000000E+00  0.00000000E+00
  0.00000000E+00  0.00000000E+00  0.00000000E+00
  0.00000000E+00  0.00000000E+00  0.00000000E+00
  0.00000000E+00  0.00000000E+00  0.00000000E+00
  0.00000000E+00  0.00000000E+00  0.00000000E+00
  0.00000000E+00  0.00000000E+00  0.00000000E+00
  0.00000000E+00  0.00000000E+00  0.00000000E+00
  0.00000000E+00  0.00000000E+00  0.00000000E+00
  0.00000000E+00  0.00000000E+00  0.00000000E+00
  0.00000000E+00  0.00000000E+00  0.00000000E+00
  0.00000000E+00  0.00000000E+00  0.00000000E+00
  0.00000000E+00  0.00000000E+00  0.00000000E+00
  0.00000000E+00  0.00000000E+00  0.00000000E+00
  0.00000000E+00  0.00000000E+00  0.00000000E+00
  0.00000000E+00  0.00000000E+00  0.00000000E+00
  0.00000000E+00  0.00000000E+00  0.00000000E+00
  0.00000000E+00  0.00000000E+00  0.00000000E+00
  0.00000000E+00  0.00000000E+00  0.00000000E+00
  0.00000000E+00  0.00000000E+00  0.00000000E+00
  0.00000000E+00  0.00000000E+00  0.00000000E+00
  0.00000000E+00  0.00000000E+00  0.00000000E+00
  0.00000000E+00  0.00000000E+00  0.00000000E+00
  0.00000000E+00  0.00000000E+00  0.00000000E+00
  0.00000000E+00  0.00000000E+00  0.00000000E+00
  0.00000000E+00  0.00000000E+00  0.00000000E+00
  0.00000000E+00  0.00000000E+00  0.00000000E+00
  0.00000000E+00  0.00000000E+00  0.00000000E+00
  0.00000000E+00  0.00000000E+00  0.00000000E+00
  0.00000000E+00  0.00000000E+00  0.00000000E+00
  0.00000000E+00  0.00000000E+00  0.00000000E+00
  0.00000000E+00  0.00000000E+00  0.00000000E+00
  0.00000000E+00  0.00000000E+00  0.00000000E+00
  0.00000000E+00  0.00000000E+00  0.00000000E+00
  0.00000000E+00  0.00000000E+00  0.00000000E+00
  0.00000000E+00  0.00000000E+00  0.00000000E+00
  0.00000000E+00  0.00000000E+00  0.00000000E+00
  0.00000000E+00  0.00000000E+00  0.00000000E+00
  0.00000000E+00  0.00000000E+00  0.00000000E+00
  0.00000000E+00  0.00000000E+00  0.00000000E+00
  0.00000000E+00  0.00000000E+00  0.00000000E+00
  0.00000000E+00  0.00000000E+00  0.00000000E+00
  0.00000000E+00  0.00000000E+00  0.00000000E+00
  0.00000000E+00  0.00000000E+00  0.00000000E+00
  0.00000000E+00  0.00000000E+00  0.00000000E+00
  0.00000000E+00  0.00000000E+00  0.00000000E+00
  0.00000000E+00  0.00000000E+00  0.00000000E+00
  0.00000000E+00  0.00000000E+00  0.00000000E+00
  0.00000000E+00  0.00000000E+00  0.00000000E+00
  0.00000000E+00  0.00000000E+00  0.00000000E+00
  0.00000000E+00  0.00000000E+00  0.00000000E+00
  0.00000000E+00  0.00000000E+00  0.00000000E+00
  0.00000000E+00  0.00000000E+00  0.00000000E+00
  0.00000000E+00  0.00000000E+00  0.00000000E+00
  0.00000000E+00  0.00000000E+00  0.00000000E+00
  0.00000000E+00  0.00000000E+00  0.00000000E+00
  0.00000000E+00  0.00000000E+00  0.00000000E+00
  0.00000000E+00  0.00000000E+00  0.00000000E+00
  0.00000000E+00  0.00000000E+00  0.00000000E+00
  0.00000000E+00  0.00000000E+00  0.00000000E+00
  0.00000000E+00  0.00000000E+00  0.00000000E+00
  0.00000000E+00  0.00000000E+00  0.00000000E+00
  0.00000000E+00  0.00000000E+00  0.00000000E+00
  0.00000000E+00  0.00000000E+00  0.00000000E+00
  0.00000000E+00  0.00000000E+00  0.00000000E+00
  0.00000000E+00  0.00000000E+00  0.00000000E+00
  0.00000000E+00  0.00000000E+00  0.00000000E+00
  0.00000000E+00  0.00000000E+00  0.00000000E+00
  0.00000000E+00  0.00000000E+00  0.00000000E+00
  0.00000000E+00  0.00000000E+00  0.00000000E+00
  0.00000000E+00  0.00000000E+00  0.00000000E+00
  0.00000000E+00  0.00000000E+00  0.00000000E+00
  0.00000000E+00  0.00000000E+00  0.00000000E+00
  0.00000000E+00  0.00000000E+00  0.00000000E+00
