POSCAR                                  
1.0
       13.5160026550         0.0000000000         0.0000000000
        0.0000000000        13.5160026550         0.0000000000
        0.0000000000         0.0000000000        13.5160026550
   Fe   Mn   Co   Cr   Ni
   20   22   19   25   21
Direct
0.25664857	0.455985993	0.427576512
0.309409738	0.356044531	0.731085181
0.475615472	0.450677902	0.72893995
0.627166271	0.18333441	0.279464334
0.151980832	0.631342292	0.277930677
0.73546907	0.45379889	0.129179388
0.419993695	0.817928672	0.126106262
0.685775459	0.265782773	0.576931477
0.309536934	0.728024304	0.274448872
0.628318608	0.175878465	0.725273967
0.843701899	0.361294448	0.576291203
0.261599809	0.820486784	0.4261069
0.580381572	0.268341005	0.876932144
0.893001881	0.72613585	0.128045231
0.202438682	0.72613585	0.578870416
0.312872291	0.728689253	0.726686418
0.741694239	0.821831405	0.126238763
0.898617625	0.817744374	0.425867796
0.261054456	0.817744374	0.876692951
0.263693851	0.546143115	0.126233488
0.744905591	0.358062893	0.427792907
0.577624228	0.541086197	0.132234216
0.472679973	0.459258646	0.272624731
0.628500819	0.538153946	0.276298344
0.418378797	0.635091007	0.127205342
0.153569028	0.26191622	0.726636767
0.791132271	0.26191622	0.275811583
0.468451083	0.637777328	0.277736276
0.62559849	0.541320086	0.722427189
0.255541384	0.645138443	0.422664046
0.414965272	0.727444589	0.424657196
0.313699216	0.175858289	0.279432446
0.632480741	0.728004098	0.730257571
0.628634691	0.360615849	0.73369205
0.733656466	0.350514829	0.876337051
0.148914889	0.265151322	0.276795149
0.467696398	0.817297101	0.727620363
0.896409273	0.275211096	0.424549878
0.258846134	0.275211096	0.875375032
0.799601197	0.823274732	0.276104867
0.162037984	0.823274732	0.726930141
0.739551332	0.268143475	0.124694221
0.362736136	0.264434487	0.58053869
0.738351107	0.54391408	0.425848812
0.100787997	0.54391408	0.876673877
0.310312688	0.549236536	0.277716756
0.20238857	0.358193696	0.577747166
0.892951515	0.358193696	0.126921922
0.742956579	0.728622437	0.423757225
0.10539335	0.728622437	0.87458241
0.677717924	0.635329604	0.578956425
0.791454077	0.453571945	0.275774479
0.153890908	0.453571945	0.726599634
0.311467022	0.544919729	0.726074934
0.57353574	0.824266553	0.426400512
0.892317355	0.272120714	0.877225578
0.416967717	0.269218266	0.122602791
0.682749271	0.821364164	0.573428035
0.578252104	0.362380624	0.125569731
0.740806845	0.633830428	0.1260508
0.25949676	0.360440731	0.126026541
0.635961294	0.362560302	0.270910412
0.590610027	0.269452661	0.427507281
0.422496945	0.343234509	0.428800493
0.688796997	0.448593289	0.576210618
0.412702024	0.539030135	0.420025796
0.528991163	0.540466368	0.585449696
0.260238197	0.723294735	0.130092412
0.099999964	0.545676708	0.428338677
0.902622607	0.539590657	0.1220918
0.212059349	0.539590657	0.572916985
0.362648994	0.637377143	0.582072496
0.262020585	0.1811409	0.127628148
0.527802169	0.733286798	0.578453362
0.474303603	0.268267632	0.266983598
0.793085098	0.82041353	0.717808843
0.733514249	0.727605879	0.874341905
0.790620327	0.635724962	0.273672938
0.153057083	0.635724962	0.724498093
0.896167636	0.640675485	0.422931254
0.258604467	0.640675485	0.873756409
0.103335351	0.17997399	0.427082926
0.422116935	0.732119799	0.877908111
0.412851182	0.448724836	0.126104772
0.251290798	0.271742463	0.432930291
0.156583622	0.453059465	0.274505258
0.577458739	0.451295704	0.427574813
0.526531935	0.357442379	0.579645038
0.845849395	0.542720079	0.57546711
0.579701033	0.730046272	0.125343859
0.845482826	0.177900374	0.576169014
0.368278772	0.448421478	0.577285349
0.632807076	0.729075253	0.276963532
0.57741797	0.635854721	0.428441405
0.84557724	0.727879345	0.574536085
0.579795685	0.175733477	0.12371093
0.790311098	0.635908425	0.727486968
0.471575141	0.821568727	0.277029216
0.790356874	0.269422859	0.72785455
0.899999976	0.454200119	0.427428693
0.471094459	0.634422898	0.731331587
0.150491983	0.82005322	0.280445874
0.469273508	0.267907381	0.731271029
0.789605319	0.449170291	0.730805695
0.361847728	0.820018053	0.576904058
0.313506812	0.358163595	0.27896893
0.576701105	0.454146177	0.877318501
