POSCAR                                  
1.0
       10.5539999008         0.0000000000         0.0000000000
        0.0000000000        10.5539999008         0.0000000000
        0.0000000000         0.0000000000        10.5539999008
   Fe   Mn   Co   Cr   Ni
   21   22   18   21   21
Cartesian	
0.028994	5.224446	5.308429
1.73338	8.839163	7.094589
3.538178	8.835091	5.24364
8.865877	8.718933	0.063692
10.513617	1.80322	5.295761
0.029186	5.266443	8.834639
1.744531	0.021626	1.73817
1.725839	1.721412	3.529837
3.523785	10.52922	10.544334
10.509209	0.044727	7.102512
1.761701	1.789439	7.105795
3.528475	1.756671	5.242319
3.492378	3.524049	7.087292
5.279621	5.262483	7.02205
7.112784	1.779074	1.741477
8.761974	8.857878	7.081402
3.557971	1.760468	8.742991
7.015391	5.296005	8.764471
8.839555	1.757698	3.464053
8.775241	5.24137	7.033549
5.270696	0.085333	8.757308
1.788953	8.856156	10.475826
0.016283	3.585086	0.046417
0.043146	5.176045	1.715194
1.685638	5.31049	0.024258
10.55077	1.768717	1.764569
10.493145	8.844147	8.779698
1.765848	3.486449	1.801752
5.181234	8.745568	3.537639
1.792328	3.372225	5.282314
3.474187	3.480839	3.5385
5.390093	8.810064	7.11212
6.901592	3.477066	10.526016
7.064502	7.06046	3.522793
3.558857	0.023263	3.592037
5.154941	1.812425	3.546168
6.988058	5.277223	5.320735
7.045414	8.769892	8.701866
8.681149	1.806211	0.056972
1.807789	10.458666	8.778559
5.353212	3.528118	8.688526
7.047393	3.545405	7.087499
8.796357	7.028327	8.754587
3.513842	7.028592	10.532988
0.0469	3.459913	3.546778
10.520818	7.031524	7.079082
5.288238	5.272378	10.465842
5.247726	7.015114	1.842892
1.772336	7.013931	8.775855
3.510761	7.006289	7.032787
5.288116	3.444065	1.802157
7.010329	5.221755	1.744226
8.813806	5.244481	10.541483
1.754832	3.550876	8.751319
7.039975	3.50773	3.508757
5.262294	1.754577	7.090135
8.80938	0.016203	1.750598
6.998467	1.768873	8.788163
8.823425	10.533996	5.310129
8.843084	1.814252	7.040087
8.82096	0.026095	8.797817
0.006564	6.987805	10.453881
0.088466	8.849414	1.622366
3.502746	8.839507	1.699199
10.535221	0.024018	0.009928
1.624831	5.232935	3.527337
3.571108	7.15176	3.534877
10.543684	0.07566	3.532302
0.02777	3.508827	7.043112
1.716147	5.313536	6.934664
3.553098	5.281347	5.344237
5.331165	1.770486	10.529981
5.352785	5.247768	3.493402
8.736735	6.966333	1.653256
8.742544	8.746116	3.532168
0.029548	1.669915	8.746509
3.492217	5.252047	8.768659
5.286663	6.951864	8.768595
7.095259	7.012548	6.996505
8.730532	3.510779	1.816982
8.834345	6.997524	5.409334
8.80839	3.505782	5.218234
1.754348	7.039452	1.768028
1.763035	8.842101	3.51672
5.263135	8.800708	10.514205
1.779915	1.736839	10.523727
1.740909	7.080953	5.24475
3.539273	3.514757	10.535927
3.524764	5.282112	1.77524
7.023982	7.022327	10.509941
7.033588	8.789912	1.759393
3.53411	1.741627	1.761757
3.560711	8.790299	8.761397
5.287992	7.072709	5.312196
1.774588	0.011072	5.331819
5.270889	0.042621	1.79308
5.253891	3.491048	5.312747
7.048862	0.002893	10.524251
8.802162	5.313442	3.5213
5.286971	10.517589	5.28595
7.048044	0.026691	3.515364
7.033752	1.763383	5.273512
8.821015	3.479918	8.804214
